Clp0006I 0  Obj 0 Primal inf 199.99998 (200) Dual inf 277901.97 (10000)
Clp0006I 168  Obj -4944.5043 Primal inf 39.999996 (38)
Clp0006I 240  Obj -4933.6045
Clp0000I Optimal - objective value -4933.6045
Clp0000I Optimal - objective value -4933.6045
Node 0 depth 0 unsatisfied 0 sum 0 obj -4933.6 guess -4933.6 branching on -1
Clp0000I Optimal - objective value -4933.6045
Cbc0004I Integer solution of -4933.6045 found after 0 iterations and 0 nodes (0.03 seconds)
Cbc0001I Search completed - best objective -4933.604499999999, took 0 iterations and 0 nodes (0.03 seconds)
Cbc0035I Maximum depth 0, 0 variables fixed on reduced cost
Clp0000I Optimal - objective value -4933.6045
Clp0000I Optimal - objective value -4933.6045
x_14 = 1
x_150 = 1
x_253 = 1
x_340 = 1
x_479 = 1
x_546 = 1
x_671 = 1
x_786 = 1
x_897 = 1
x_948 = 1
x_1065 = 1
x_1120 = 1
x_1249 = 1
x_1324 = 1
x_1410 = 1
x_1563 = 1
x_1623 = 1
x_1758 = 1
x_1828 = 1
x_1988 = 1
x_2030 = 1
x_2136 = 1
x_2219 = 1
x_2354 = 1
x_2407 = 1
x_2593 = 1
x_2611 = 1
x_2772 = 1
x_2880 = 1
x_2900 = 1
x_3082 = 1
x_3183 = 1
x_3269 = 1
x_3396 = 1
x_3457 = 1
x_3535 = 1
x_3622 = 1
x_3731 = 1
x_3890 = 1
x_3932 = 1
x_4098 = 1
x_4121 = 1
x_4268 = 1
x_4385 = 1
x_4412 = 1
x_4527 = 1
x_4625 = 1
x_4739 = 1
x_4862 = 1
x_4970 = 1
x_5055 = 1
x_5167 = 1
x_5276 = 1
x_5316 = 1
x_5406 = 1
x_5584 = 1
x_5678 = 1
x_5701 = 1
x_5804 = 1
x_5915 = 1
x_6029 = 1
x_6102 = 1
x_6237 = 1
x_6334 = 1
x_6433 = 1
x_6581 = 1
x_6618 = 1
x_6766 = 1
x_6891 = 1
x_6961 = 1
x_7038 = 1
x_7141 = 1
x_7299 = 1
x_7374 = 1
x_7409 = 1
x_7505 = 1
x_7660 = 1
x_7789 = 1
x_7844 = 1
x_7942 = 1
x_8013 = 1
x_8145 = 1
x_8264 = 1
x_8303 = 1
x_8475 = 1
x_8508 = 1
x_8687 = 1
x_8751 = 1
x_8894 = 1
x_8973 = 1
x_9077 = 1
x_9156 = 1
x_9217 = 1
x_9395 = 1
x_9426 = 1
x_9559 = 1
x_9652 = 1
x_9792 = 1
x_9847 = 1
x_9943 = 1
real 0m0,093s user 0m0,076s sys 0m0,016s
